(set-option :print-success true)
(set-option :produce-models true)
(set-logic ALL)
(declare-sort Unspecified 0)
(declare-sort Unit 0)
(declare-const loaded_value_0 (_ BitVec 64))
(declare-const clif_load_active_1 Bool)
(declare-const clif_load_size_bits_2 Int)
(declare-const clif_load_addr_3 (_ BitVec 64))
(declare-const clif_store_active_4 Bool)
(declare-const clif_store_size_bits_5 Int)
(declare-const clif_store_addr_6 (_ BitVec 64))
(declare-const clif_store_value_7 (_ BitVec 64))
(declare-const isa_load_active_8 Bool)
(declare-const isa_load_size_bits_9 Int)
(declare-const isa_load_addr_10 (_ BitVec 64))
(declare-const isa_store_active_11 Bool)
(declare-const isa_store_size_bits_12 Int)
(declare-const isa_store_addr_13 (_ BitVec 64))
(declare-const isa_store_value_14 (_ BitVec 64))
(declare-const b0_15 (_ BitVec 32))
(declare-const b3_some_16 Bool)
(declare-const b3_inner_0_17 Int)
(declare-const b3_inner_1_18 (_ BitVec 32))
(declare-const e19 Bool)
(assert (! (= e19 (= b0_15 b3_inner_1_18)) :named expr19))
(declare-const e20 Int)
(assert (! (= e20 32) :named expr20))
(declare-const e21 Bool)
(assert (! (= e21 (= b3_inner_0_17 e20)) :named expr21))
(declare-const e22 Bool)
(assert (! (= e22 true) :named expr22))
(declare-const e23 Bool)
(assert (! (= e23 (= b3_some_16 e22)) :named expr23))
(declare-const e24 Bool)
(assert (! (= e24 (and e19 e21)) :named expr24))
(declare-const e25 Bool)
(assert (! (= e25 (=> e22 e24)) :named expr25))
(declare-const b4_0_26 Int)
(declare-const b4_1_27 (_ BitVec 32))
(declare-const e28 Bool)
(assert (! (= e28 (= b4_0_26 b3_inner_0_17)) :named expr28))
(declare-const e29 Bool)
(assert (! (= e29 (= b4_1_27 b3_inner_1_18)) :named expr29))
(declare-const e30 Bool)
(assert (! (= e30 (and e28 e29)) :named expr30))
(declare-const e31 Bool)
(assert (! (= e31 (=> b3_some_16 e30)) :named expr31))
(declare-const b5_32 Int)
(declare-const e33 Bool)
(assert (! (= e33 (= b5_32 b4_0_26)) :named expr33))
(declare-const b6_34 (_ BitVec 32))
(declare-const e35 Bool)
(assert (! (= e35 (= b6_34 b4_1_27)) :named expr35))
(declare-const b7_some_36 Bool)
(declare-const b7_inner_0_37 (_ BitVec 32))
(declare-const b7_inner_1_38 (_ BitVec 32))
(declare-const e39 (_ BitVec 32))
(assert (! (= e39 (bvor (bvshl b7_inner_0_37 (bvurem b7_inner_1_38 (_ bv32 32))) (bvlshr b7_inner_0_37 (bvsub (_ bv32 32) (bvurem b7_inner_1_38 (_ bv32 32)))))) :named expr39))
(declare-const e40 Bool)
(assert (! (= e40 (= b6_34 e39)) :named expr40))
(declare-const e41 Bool)
(assert (! (= e41 (= b7_some_36 e22)) :named expr41))
(declare-const e42 Bool)
(assert (! (= e42 (=> e22 e40)) :named expr42))
(declare-const b8_0_43 (_ BitVec 32))
(declare-const b8_1_44 (_ BitVec 32))
(declare-const e45 Bool)
(assert (! (= e45 (= b8_0_43 b7_inner_0_37)) :named expr45))
(declare-const e46 Bool)
(assert (! (= e46 (= b8_1_44 b7_inner_1_38)) :named expr46))
(declare-const e47 Bool)
(assert (! (= e47 (and e45 e46)) :named expr47))
(declare-const e48 Bool)
(assert (! (= e48 (=> b7_some_36 e47)) :named expr48))
(declare-const b9_49 (_ BitVec 32))
(declare-const e50 Bool)
(assert (! (= e50 (= b9_49 b8_1_44)) :named expr50))
(declare-const b10_some_51 Bool)
(declare-const b10_inner_52 (_ BitVec 32))
(declare-const e53 Bool)
(assert (! (= e53 (= b9_49 b10_inner_52)) :named expr53))
(declare-const e54 Bool)
(assert (! (= e54 (= b10_some_51 e22)) :named expr54))
(declare-const e55 Bool)
(assert (! (= e55 (=> e22 e53)) :named expr55))
(declare-const b11_56 (_ BitVec 32))
(declare-const e57 Bool)
(assert (! (= e57 (= b11_56 b10_inner_52)) :named expr57))
(declare-const e58 Bool)
(assert (! (= e58 (=> b10_some_51 e57)) :named expr58))
(declare-const b12_some_59 Bool)
(declare-const b12_inner_60 (_ BitVec 64))
(declare-const e61 Int)
(assert (! (= e61 64) :named expr61))
(declare-const e62 (_ BitVec 64))
(assert (! (= e62 ((_ zero_extend 32) b11_56)) :named expr62))
(declare-const e63 Bool)
(assert (! (= e63 (= b12_inner_60 e62)) :named expr63))
(declare-const e64 Bool)
(assert (! (= e64 (= b12_some_59 e22)) :named expr64))
(declare-const e65 Bool)
(assert (! (= e65 (=> e22 e63)) :named expr65))
(declare-const b13_66 Int)
(declare-const e67 Int)
(assert (! (= e67 32) :named expr67))
(declare-const e68 Bool)
(assert (! (= e68 (= b13_66 e67)) :named expr68))
(declare-const b14_69 (_ BitVec 64))
(declare-const e70 Bool)
(assert (! (= e70 (= b14_69 b12_inner_60)) :named expr70))
(declare-const e71 Bool)
(assert (! (= e71 (=> b12_some_59 e70)) :named expr71))
(declare-const b15_some_72 Bool)
(declare-const b15_inner_73 (_ BitVec 6))
(declare-const e74 (_ BitVec 64))
(assert (! (= e74 ((_ int2bv 64) b13_66)) :named expr74))
(declare-const e75 (_ BitVec 1))
(assert (! (= e75 #b1) :named expr75))
(declare-const e76 (_ BitVec 64))
(assert (! (= e76 ((_ zero_extend 63) e75)) :named expr76))
(declare-const e77 (_ BitVec 64))
(assert (! (= e77 (bvsub e74 e76)) :named expr77))
(declare-const e78 (_ BitVec 64))
(assert (! (= e78 (bvand b14_69 e77)) :named expr78))
(declare-const e79 (_ BitVec 64))
(assert (! (= e79 ((_ int2bv 64) e61)) :named expr79))
(declare-const e80 Bool)
(assert (! (= e80 (bvult e78 e79)) :named expr80))
(declare-const e81 (_ BitVec 6))
(assert (! (= e81 ((_ extract 5 0) e78)) :named expr81))
(declare-const e82 Bool)
(assert (! (= e82 (= b15_inner_73 e81)) :named expr82))
(declare-const e83 Bool)
(assert (! (= e83 (= b15_some_72 e80)) :named expr83))
(declare-const e84 Bool)
(assert (! (= e84 (=> e80 e82)) :named expr84))
(declare-const b16_85 (_ BitVec 32))
(declare-const e86 Bool)
(assert (! (= e86 (= b16_85 b8_0_43)) :named expr86))
(declare-const b17_87 (_ BitVec 64))
(declare-const e88 Int)
(assert (! (= e88 32) :named expr88))
(declare-const e89 Bool)
(assert (! (= e89 (<= e88 e61)) :named expr89))
(declare-const e90 Int)
(assert (! (= e90 64) :named expr90))
(declare-const e91 (_ BitVec 64))
(declare-const fresh0 (_ BitVec 32))
(assert (! (= e91 (concat fresh0 b16_85)) :named expr91))
(declare-const e92 Bool)
(assert (! (= e92 (= b17_87 e91)) :named expr92))
(declare-const b18_93 (_ BitVec 6))
(declare-const e94 Bool)
(assert (! (= e94 (= b18_93 b15_inner_73)) :named expr94))
(declare-const e95 Bool)
(assert (! (= e95 (=> b15_some_72 e94)) :named expr95))
(declare-const b19_96 (_ BitVec 6))
(declare-const e97 Int)
(assert (! (= e97 6) :named expr97))
(declare-const e98 (_ BitVec 6))
(assert (! (= e98 ((_ int2bv 6) b13_66)) :named expr98))
(declare-const e99 (_ BitVec 6))
(assert (! (= e99 (bvsub e98 b18_93)) :named expr99))
(declare-const e100 (_ BitVec 6))
(assert (! (= e100 #b000001) :named expr100))
(declare-const e101 (_ BitVec 6))
(assert (! (= e101 (bvsub e98 e100)) :named expr101))
(declare-const e102 (_ BitVec 6))
(assert (! (= e102 (bvand e99 e101)) :named expr102))
(declare-const e103 Bool)
(assert (! (= e103 (= b19_96 e102)) :named expr103))
(declare-const b22_some_104 Bool)
(declare-const b22_inner_105 (_ BitVec 32))
(declare-const b25_106 (_ BitVec 32))
(declare-const b24_lo_107 (_ BitVec 64))
(declare-const b24_hi_108 (_ BitVec 64))
(declare-const b40_109 (_ BitVec 64))
(declare-const b36_110 (_ BitVec 64))
(declare-const b35_111 Int)
(declare-const e112 Bool)
(assert (! (= e112 (= b35_111 e61)) :named expr112))
(declare-const e113 Int)
(assert (! (= e113 64) :named expr113))
(declare-const e114 Bool)
(assert (! (= e114 (= b35_111 e113)) :named expr114))
(declare-const e115 Bool)
(assert (! (= e115 (= b40_109 b36_110)) :named expr115))
(declare-const e116 Bool)
(assert (! (= e116 (= b24_lo_107 b40_109)) :named expr116))
(declare-const e117 Int)
(assert (! (= e117 64) :named expr117))
(declare-const e118 Int)
(assert (! (= e118 64) :named expr118))
(declare-const e119 Bool)
(assert (! (= e119 (= e117 e118)) :named expr119))
(declare-const e120 (_ BitVec 128))
(assert (! (= e120 (concat b24_hi_108 b24_lo_107)) :named expr120))
(declare-const e121 Int)
(assert (! (= e121 128) :named expr121))
(declare-const e122 (_ BitVec 128))
(declare-const fresh1 (_ BitVec 96))
(assert (! (= e122 (concat fresh1 b25_106)) :named expr122))
(declare-const e123 Bool)
(assert (! (= e123 (= e120 e122)) :named expr123))
(declare-const e124 Bool)
(assert (! (= e124 (= b25_106 b22_inner_105)) :named expr124))
(declare-const b29_discriminant_125 Int)
(declare-const e126 Int)
(assert (! (= e126 0) :named expr126))
(declare-const e127 Int)
(assert (! (= e127 23) :named expr127))
(declare-const e128 Bool)
(assert (! (= e128 (<= e126 b29_discriminant_125)) :named expr128))
(declare-const e129 Bool)
(assert (! (= e129 (< b29_discriminant_125 e127)) :named expr129))
(declare-const e130 Bool)
(assert (! (= e130 (and e128 e129)) :named expr130))
(declare-const e131 Int)
(assert (! (= e131 15) :named expr131))
(declare-const e132 Bool)
(assert (! (= e132 (<= e126 e131)) :named expr132))
(declare-const e133 Bool)
(assert (! (= e133 (< e131 e127)) :named expr133))
(declare-const e134 Bool)
(assert (! (= e134 (and e132 e133)) :named expr134))
(declare-const e135 Bool)
(assert (! (= e135 (= b29_discriminant_125 e131)) :named expr135))
(declare-const e136 Bool)
(assert (! (= e136 (= b29_discriminant_125 e126)) :named expr136))
(declare-const e137 Bool)
(assert (! (= e137 (=> e136 e22)) :named expr137))
(declare-const e138 Int)
(assert (! (= e138 1) :named expr138))
(declare-const e139 Bool)
(assert (! (= e139 (= b29_discriminant_125 e138)) :named expr139))
(declare-const e140 Bool)
(assert (! (= e140 (=> e139 e22)) :named expr140))
(declare-const e141 Int)
(assert (! (= e141 2) :named expr141))
(declare-const e142 Bool)
(assert (! (= e142 (= b29_discriminant_125 e141)) :named expr142))
(declare-const e143 Bool)
(assert (! (= e143 (=> e142 e22)) :named expr143))
(declare-const e144 Int)
(assert (! (= e144 3) :named expr144))
(declare-const e145 Bool)
(assert (! (= e145 (= b29_discriminant_125 e144)) :named expr145))
(declare-const e146 Bool)
(assert (! (= e146 (=> e145 e22)) :named expr146))
(declare-const e147 Int)
(assert (! (= e147 4) :named expr147))
(declare-const e148 Bool)
(assert (! (= e148 (= b29_discriminant_125 e147)) :named expr148))
(declare-const e149 Bool)
(assert (! (= e149 (=> e148 e22)) :named expr149))
(declare-const e150 Int)
(assert (! (= e150 5) :named expr150))
(declare-const e151 Bool)
(assert (! (= e151 (= b29_discriminant_125 e150)) :named expr151))
(declare-const e152 Bool)
(assert (! (= e152 (=> e151 e22)) :named expr152))
(declare-const e153 Bool)
(assert (! (= e153 (= b29_discriminant_125 e97)) :named expr153))
(declare-const e154 Bool)
(assert (! (= e154 (=> e153 e22)) :named expr154))
(declare-const e155 Int)
(assert (! (= e155 7) :named expr155))
(declare-const e156 Bool)
(assert (! (= e156 (= b29_discriminant_125 e155)) :named expr156))
(declare-const e157 Bool)
(assert (! (= e157 (=> e156 e22)) :named expr157))
(declare-const e158 Int)
(assert (! (= e158 8) :named expr158))
(declare-const e159 Bool)
(assert (! (= e159 (= b29_discriminant_125 e158)) :named expr159))
(declare-const e160 Bool)
(assert (! (= e160 (=> e159 e22)) :named expr160))
(declare-const e161 Int)
(assert (! (= e161 9) :named expr161))
(declare-const e162 Bool)
(assert (! (= e162 (= b29_discriminant_125 e161)) :named expr162))
(declare-const e163 Bool)
(assert (! (= e163 (=> e162 e22)) :named expr163))
(declare-const e164 Int)
(assert (! (= e164 10) :named expr164))
(declare-const e165 Bool)
(assert (! (= e165 (= b29_discriminant_125 e164)) :named expr165))
(declare-const e166 Bool)
(assert (! (= e166 (=> e165 e22)) :named expr166))
(declare-const e167 Int)
(assert (! (= e167 11) :named expr167))
(declare-const e168 Bool)
(assert (! (= e168 (= b29_discriminant_125 e167)) :named expr168))
(declare-const e169 Bool)
(assert (! (= e169 (=> e168 e22)) :named expr169))
(declare-const e170 Int)
(assert (! (= e170 12) :named expr170))
(declare-const e171 Bool)
(assert (! (= e171 (= b29_discriminant_125 e170)) :named expr171))
(declare-const e172 Bool)
(assert (! (= e172 (=> e171 e22)) :named expr172))
(declare-const e173 Int)
(assert (! (= e173 13) :named expr173))
(declare-const e174 Bool)
(assert (! (= e174 (= b29_discriminant_125 e173)) :named expr174))
(declare-const e175 Bool)
(assert (! (= e175 (=> e174 e22)) :named expr175))
(declare-const e176 Int)
(assert (! (= e176 14) :named expr176))
(declare-const e177 Bool)
(assert (! (= e177 (= b29_discriminant_125 e176)) :named expr177))
(declare-const e178 Bool)
(assert (! (= e178 (=> e177 e22)) :named expr178))
(declare-const e179 Bool)
(assert (! (= e179 (=> e135 e22)) :named expr179))
(declare-const e180 Int)
(assert (! (= e180 16) :named expr180))
(declare-const e181 Bool)
(assert (! (= e181 (= b29_discriminant_125 e180)) :named expr181))
(declare-const e182 Bool)
(assert (! (= e182 (=> e181 e22)) :named expr182))
(declare-const e183 Int)
(assert (! (= e183 17) :named expr183))
(declare-const e184 Bool)
(assert (! (= e184 (= b29_discriminant_125 e183)) :named expr184))
(declare-const e185 Bool)
(assert (! (= e185 (=> e184 e22)) :named expr185))
(declare-const e186 Int)
(assert (! (= e186 18) :named expr186))
(declare-const e187 Bool)
(assert (! (= e187 (= b29_discriminant_125 e186)) :named expr187))
(declare-const e188 Bool)
(assert (! (= e188 (=> e187 e22)) :named expr188))
(declare-const e189 Int)
(assert (! (= e189 19) :named expr189))
(declare-const e190 Bool)
(assert (! (= e190 (= b29_discriminant_125 e189)) :named expr190))
(declare-const e191 Bool)
(assert (! (= e191 (=> e190 e22)) :named expr191))
(declare-const e192 Int)
(assert (! (= e192 20) :named expr192))
(declare-const e193 Bool)
(assert (! (= e193 (= b29_discriminant_125 e192)) :named expr193))
(declare-const e194 Bool)
(assert (! (= e194 (=> e193 e22)) :named expr194))
(declare-const e195 Int)
(assert (! (= e195 21) :named expr195))
(declare-const e196 Bool)
(assert (! (= e196 (= b29_discriminant_125 e195)) :named expr196))
(declare-const e197 Bool)
(assert (! (= e197 (=> e196 e22)) :named expr197))
(declare-const e198 Int)
(assert (! (= e198 22) :named expr198))
(declare-const e199 Bool)
(assert (! (= e199 (= b29_discriminant_125 e198)) :named expr199))
(declare-const e200 Bool)
(assert (! (= e200 (=> e199 e22)) :named expr200))
(declare-const e201 Bool)
(assert (! (= e201 (and e135 e137)) :named expr201))
(declare-const e202 Bool)
(assert (! (= e202 (and e201 e140)) :named expr202))
(declare-const e203 Bool)
(assert (! (= e203 (and e202 e143)) :named expr203))
(declare-const e204 Bool)
(assert (! (= e204 (and e203 e146)) :named expr204))
(declare-const e205 Bool)
(assert (! (= e205 (and e204 e149)) :named expr205))
(declare-const e206 Bool)
(assert (! (= e206 (and e205 e152)) :named expr206))
(declare-const e207 Bool)
(assert (! (= e207 (and e206 e154)) :named expr207))
(declare-const e208 Bool)
(assert (! (= e208 (and e207 e157)) :named expr208))
(declare-const e209 Bool)
(assert (! (= e209 (and e208 e160)) :named expr209))
(declare-const e210 Bool)
(assert (! (= e210 (and e209 e163)) :named expr210))
(declare-const e211 Bool)
(assert (! (= e211 (and e210 e166)) :named expr211))
(declare-const e212 Bool)
(assert (! (= e212 (and e211 e169)) :named expr212))
(declare-const e213 Bool)
(assert (! (= e213 (and e212 e172)) :named expr213))
(declare-const e214 Bool)
(assert (! (= e214 (and e213 e175)) :named expr214))
(declare-const e215 Bool)
(assert (! (= e215 (and e214 e178)) :named expr215))
(declare-const e216 Bool)
(assert (! (= e216 (and e215 e179)) :named expr216))
(declare-const e217 Bool)
(assert (! (= e217 (and e216 e182)) :named expr217))
(declare-const e218 Bool)
(assert (! (= e218 (and e217 e185)) :named expr218))
(declare-const e219 Bool)
(assert (! (= e219 (and e218 e188)) :named expr219))
(declare-const e220 Bool)
(assert (! (= e220 (and e219 e191)) :named expr220))
(declare-const e221 Bool)
(assert (! (= e221 (and e220 e194)) :named expr221))
(declare-const e222 Bool)
(assert (! (= e222 (and e221 e197)) :named expr222))
(declare-const e223 Bool)
(assert (! (= e223 (and e222 e200)) :named expr223))
(declare-const b37_discriminant_224 Int)
(declare-const e225 Bool)
(assert (! (= e225 (<= e126 b37_discriminant_224)) :named expr225))
(declare-const e226 Bool)
(assert (! (= e226 (< b37_discriminant_224 e141)) :named expr226))
(declare-const e227 Bool)
(assert (! (= e227 (and e225 e226)) :named expr227))
(declare-const e228 Bool)
(assert (! (= e228 (= b13_66 e158)) :named expr228))
(declare-const e229 Bool)
(assert (! (= e229 (= b13_66 e180)) :named expr229))
(declare-const e230 Bool)
(assert (! (= e230 (= b13_66 e61)) :named expr230))
(declare-const e231 Bool)
(assert (! (= e231 (or e68 e230)) :named expr231))
(declare-const e232 Bool)
(assert (! (= e232 (or e229 e231)) :named expr232))
(declare-const e233 Bool)
(assert (! (= e233 (or e228 e232)) :named expr233))
(declare-const e234 Bool)
(assert (! (= e234 (<= b13_66 e67)) :named expr234))
(declare-const e235 Bool)
(assert (! (= e235 (<= e126 e126)) :named expr235))
(declare-const e236 Bool)
(assert (! (= e236 (< e126 e141)) :named expr236))
(declare-const e237 Bool)
(assert (! (= e237 (and e235 e236)) :named expr237))
(declare-const e238 Bool)
(assert (! (= e238 (<= e126 e138)) :named expr238))
(declare-const e239 Bool)
(assert (! (= e239 (< e138 e141)) :named expr239))
(declare-const e240 Bool)
(assert (! (= e240 (and e238 e239)) :named expr240))
(declare-const e241 Int)
(assert (! (= e241 (ite e234 e126 e138)) :named expr241))
(declare-const e242 Bool)
(assert (! (= e242 (= b37_discriminant_224 e241)) :named expr242))
(declare-const e243 Bool)
(assert (! (= e243 (= b37_discriminant_224 e126)) :named expr243))
(declare-const e244 Bool)
(assert (! (= e244 (=> e243 e22)) :named expr244))
(declare-const e245 Bool)
(assert (! (= e245 (= b37_discriminant_224 e138)) :named expr245))
(declare-const e246 Bool)
(assert (! (= e246 (=> e245 e22)) :named expr246))
(declare-const e247 Bool)
(assert (! (= e247 (and e242 e244)) :named expr247))
(declare-const e248 Bool)
(assert (! (= e248 (and e247 e246)) :named expr248))
(declare-const b38_flags_in_N_249 (_ BitVec 1))
(declare-const b38_flags_in_Z_250 (_ BitVec 1))
(declare-const b38_flags_in_C_251 (_ BitVec 1))
(declare-const b38_flags_in_V_252 (_ BitVec 1))
(declare-const b38_flags_out_N_253 (_ BitVec 1))
(declare-const b38_flags_out_Z_254 (_ BitVec 1))
(declare-const b38_flags_out_C_255 (_ BitVec 1))
(declare-const b38_flags_out_V_256 (_ BitVec 1))
(declare-const e257 Bool)
(assert (! (= e257 (<= e126 e180)) :named expr257))
(declare-const e258 Bool)
(assert (! (= e258 (< e180 e127)) :named expr258))
(declare-const e259 Bool)
(assert (! (= e259 (and e257 e258)) :named expr259))
(declare-const e260 Bool)
(assert (! (= e260 (and e181 e137)) :named expr260))
(declare-const e261 Bool)
(assert (! (= e261 (and e260 e140)) :named expr261))
(declare-const e262 Bool)
(assert (! (= e262 (and e261 e143)) :named expr262))
(declare-const e263 Bool)
(assert (! (= e263 (and e262 e146)) :named expr263))
(declare-const e264 Bool)
(assert (! (= e264 (and e263 e149)) :named expr264))
(declare-const e265 Bool)
(assert (! (= e265 (and e264 e152)) :named expr265))
(declare-const e266 Bool)
(assert (! (= e266 (and e265 e154)) :named expr266))
(declare-const e267 Bool)
(assert (! (= e267 (and e266 e157)) :named expr267))
(declare-const e268 Bool)
(assert (! (= e268 (and e267 e160)) :named expr268))
(declare-const e269 Bool)
(assert (! (= e269 (and e268 e163)) :named expr269))
(declare-const e270 Bool)
(assert (! (= e270 (and e269 e166)) :named expr270))
(declare-const e271 Bool)
(assert (! (= e271 (and e270 e169)) :named expr271))
(declare-const e272 Bool)
(assert (! (= e272 (and e271 e172)) :named expr272))
(declare-const e273 Bool)
(assert (! (= e273 (and e272 e175)) :named expr273))
(declare-const e274 Bool)
(assert (! (= e274 (and e273 e178)) :named expr274))
(declare-const e275 Bool)
(assert (! (= e275 (and e274 e179)) :named expr275))
(declare-const e276 Bool)
(assert (! (= e276 (and e275 e182)) :named expr276))
(declare-const e277 Bool)
(assert (! (= e277 (and e276 e185)) :named expr277))
(declare-const e278 Bool)
(assert (! (= e278 (and e277 e188)) :named expr278))
(declare-const e279 Bool)
(assert (! (= e279 (and e278 e191)) :named expr279))
(declare-const e280 Bool)
(assert (! (= e280 (and e279 e194)) :named expr280))
(declare-const e281 Bool)
(assert (! (= e281 (and e280 e197)) :named expr281))
(declare-const e282 Bool)
(assert (! (= e282 (and e281 e200)) :named expr282))
(declare-const e283 Bool)
(assert (! (= e283 (and e245 e244)) :named expr283))
(declare-const e284 Bool)
(assert (! (= e284 (and e283 e246)) :named expr284))
(declare-const e285 Bool)
(assert (! (= e285 (and e282 e284)) :named expr285))
(declare-const e286 Bool)
(assert (! (= e286 (and e243 e244)) :named expr286))
(declare-const e287 Bool)
(assert (! (= e287 (and e286 e246)) :named expr287))
(declare-const e288 Bool)
(assert (! (= e288 (and e282 e287)) :named expr288))
(declare-const e289 Bool)
(assert (! (= e289 (<= e126 e183)) :named expr289))
(declare-const e290 Bool)
(assert (! (= e290 (< e183 e127)) :named expr290))
(declare-const e291 Bool)
(assert (! (= e291 (and e289 e290)) :named expr291))
(declare-const e292 Bool)
(assert (! (= e292 (and e184 e137)) :named expr292))
(declare-const e293 Bool)
(assert (! (= e293 (and e292 e140)) :named expr293))
(declare-const e294 Bool)
(assert (! (= e294 (and e293 e143)) :named expr294))
(declare-const e295 Bool)
(assert (! (= e295 (and e294 e146)) :named expr295))
(declare-const e296 Bool)
(assert (! (= e296 (and e295 e149)) :named expr296))
(declare-const e297 Bool)
(assert (! (= e297 (and e296 e152)) :named expr297))
(declare-const e298 Bool)
(assert (! (= e298 (and e297 e154)) :named expr298))
(declare-const e299 Bool)
(assert (! (= e299 (and e298 e157)) :named expr299))
(declare-const e300 Bool)
(assert (! (= e300 (and e299 e160)) :named expr300))
(declare-const e301 Bool)
(assert (! (= e301 (and e300 e163)) :named expr301))
(declare-const e302 Bool)
(assert (! (= e302 (and e301 e166)) :named expr302))
(declare-const e303 Bool)
(assert (! (= e303 (and e302 e169)) :named expr303))
(declare-const e304 Bool)
(assert (! (= e304 (and e303 e172)) :named expr304))
(declare-const e305 Bool)
(assert (! (= e305 (and e304 e175)) :named expr305))
(declare-const e306 Bool)
(assert (! (= e306 (and e305 e178)) :named expr306))
(declare-const e307 Bool)
(assert (! (= e307 (and e306 e179)) :named expr307))
(declare-const e308 Bool)
(assert (! (= e308 (and e307 e182)) :named expr308))
(declare-const e309 Bool)
(assert (! (= e309 (and e308 e185)) :named expr309))
(declare-const e310 Bool)
(assert (! (= e310 (and e309 e188)) :named expr310))
(declare-const e311 Bool)
(assert (! (= e311 (and e310 e191)) :named expr311))
(declare-const e312 Bool)
(assert (! (= e312 (and e311 e194)) :named expr312))
(declare-const e313 Bool)
(assert (! (= e313 (and e312 e197)) :named expr313))
(declare-const e314 Bool)
(assert (! (= e314 (and e313 e200)) :named expr314))
(declare-const e315 Bool)
(assert (! (= e315 (and e314 e284)) :named expr315))
(declare-const e316 Bool)
(assert (! (= e316 (and e314 e287)) :named expr316))
(declare-const e317 Bool)
(assert (! (= e317 (<= e126 e186)) :named expr317))
(declare-const e318 Bool)
(assert (! (= e318 (< e186 e127)) :named expr318))
(declare-const e319 Bool)
(assert (! (= e319 (and e317 e318)) :named expr319))
(declare-const e320 Bool)
(assert (! (= e320 (and e187 e137)) :named expr320))
(declare-const e321 Bool)
(assert (! (= e321 (and e320 e140)) :named expr321))
(declare-const e322 Bool)
(assert (! (= e322 (and e321 e143)) :named expr322))
(declare-const e323 Bool)
(assert (! (= e323 (and e322 e146)) :named expr323))
(declare-const e324 Bool)
(assert (! (= e324 (and e323 e149)) :named expr324))
(declare-const e325 Bool)
(assert (! (= e325 (and e324 e152)) :named expr325))
(declare-const e326 Bool)
(assert (! (= e326 (and e325 e154)) :named expr326))
(declare-const e327 Bool)
(assert (! (= e327 (and e326 e157)) :named expr327))
(declare-const e328 Bool)
(assert (! (= e328 (and e327 e160)) :named expr328))
(declare-const e329 Bool)
(assert (! (= e329 (and e328 e163)) :named expr329))
(declare-const e330 Bool)
(assert (! (= e330 (and e329 e166)) :named expr330))
(declare-const e331 Bool)
(assert (! (= e331 (and e330 e169)) :named expr331))
(declare-const e332 Bool)
(assert (! (= e332 (and e331 e172)) :named expr332))
(declare-const e333 Bool)
(assert (! (= e333 (and e332 e175)) :named expr333))
(declare-const e334 Bool)
(assert (! (= e334 (and e333 e178)) :named expr334))
(declare-const e335 Bool)
(assert (! (= e335 (and e334 e179)) :named expr335))
(declare-const e336 Bool)
(assert (! (= e336 (and e335 e182)) :named expr336))
(declare-const e337 Bool)
(assert (! (= e337 (and e336 e185)) :named expr337))
(declare-const e338 Bool)
(assert (! (= e338 (and e337 e188)) :named expr338))
(declare-const e339 Bool)
(assert (! (= e339 (and e338 e191)) :named expr339))
(declare-const e340 Bool)
(assert (! (= e340 (and e339 e194)) :named expr340))
(declare-const e341 Bool)
(assert (! (= e341 (and e340 e197)) :named expr341))
(declare-const e342 Bool)
(assert (! (= e342 (and e341 e200)) :named expr342))
(declare-const e343 Bool)
(assert (! (= e343 (and e342 e284)) :named expr343))
(declare-const e344 Bool)
(assert (! (= e344 (and e342 e287)) :named expr344))
(declare-const e345 Bool)
(assert (! (= e345 (and e223 e284)) :named expr345))
(declare-const e346 Bool)
(assert (! (= e346 (and e223 e287)) :named expr346))
(declare-const e347 Bool)
(assert (! (= e347 (or e345 e346)) :named expr347))
(declare-const e348 Bool)
(assert (! (= e348 (or e344 e347)) :named expr348))
(declare-const e349 Bool)
(assert (! (= e349 (or e343 e348)) :named expr349))
(declare-const e350 Bool)
(assert (! (= e350 (or e316 e349)) :named expr350))
(declare-const e351 Bool)
(assert (! (= e351 (or e315 e350)) :named expr351))
(declare-const e352 Bool)
(assert (! (= e352 (or e288 e351)) :named expr352))
(declare-const e353 Bool)
(assert (! (= e353 (or e285 e352)) :named expr353))
(declare-const e354 (_ BitVec 64))
(assert (! (= e354 ((_ zero_extend 58) b19_96)) :named expr354))
(declare-const e355 (_ BitVec 64))
(assert (! (= e355 (bvlshr b17_87 e354)) :named expr355))
(declare-const e356 Bool)
(assert (! (= e356 (= b36_110 e355)) :named expr356))
(declare-const e357 Bool)
(assert (! (= e357 (=> e285 e356)) :named expr357))
(declare-const e358 (_ BitVec 32))
(assert (! (= e358 ((_ extract 31 0) b17_87)) :named expr358))
(declare-const e359 (_ BitVec 32))
(assert (! (= e359 ((_ zero_extend 26) b19_96)) :named expr359))
(declare-const e360 (_ BitVec 32))
(assert (! (= e360 (bvlshr e358 e359)) :named expr360))
(declare-const e361 (_ BitVec 64))
(assert (! (= e361 ((_ zero_extend 32) e360)) :named expr361))
(declare-const e362 Bool)
(assert (! (= e362 (= b36_110 e361)) :named expr362))
(declare-const e363 Bool)
(assert (! (= e363 (=> e288 e362)) :named expr363))
(declare-const e364 (_ BitVec 64))
(assert (! (= e364 (bvashr b17_87 e354)) :named expr364))
(declare-const e365 Bool)
(assert (! (= e365 (= b36_110 e364)) :named expr365))
(declare-const e366 Bool)
(assert (! (= e366 (=> e315 e365)) :named expr366))
(declare-const e367 (_ BitVec 32))
(assert (! (= e367 (bvashr e358 e359)) :named expr367))
(declare-const e368 (_ BitVec 64))
(assert (! (= e368 ((_ zero_extend 32) e367)) :named expr368))
(declare-const e369 Bool)
(assert (! (= e369 (= b36_110 e368)) :named expr369))
(declare-const e370 Bool)
(assert (! (= e370 (=> e316 e369)) :named expr370))
(declare-const e371 (_ BitVec 64))
(assert (! (= e371 (bvshl b17_87 e354)) :named expr371))
(declare-const e372 Bool)
(assert (! (= e372 (= b36_110 e371)) :named expr372))
(declare-const e373 Bool)
(assert (! (= e373 (=> e343 e372)) :named expr373))
(declare-const e374 (_ BitVec 32))
(assert (! (= e374 (bvshl e358 e359)) :named expr374))
(declare-const e375 (_ BitVec 64))
(assert (! (= e375 ((_ zero_extend 32) e374)) :named expr375))
(declare-const e376 Bool)
(assert (! (= e376 (= b36_110 e375)) :named expr376))
(declare-const e377 Bool)
(assert (! (= e377 (=> e344 e376)) :named expr377))
(declare-const t1_378 Bool)
(declare-const t3_379 (_ BitVec 32))
(declare-const t4_380 (_ BitVec 32))
(declare-const t5_381 (_ BitVec 32))
(declare-const e382 (_ BitVec 5))
(assert (! (= e382 ((_ extract 4 0) b19_96)) :named expr382))
(declare-const e383 (_ BitVec 5))
(assert (! (= e383 #b00000) :named expr383))
(declare-const e384 Bool)
(assert (! (= e384 (= e382 e383)) :named expr384))
(declare-const e385 Bool)
(assert (! (= e385 (= t1_378 e384)) :named expr385))
(declare-const e386 Bool)
(assert (! (= e386 (= t3_379 e358)) :named expr386))
(declare-const e387 Bool)
(assert (! (= e387 (not e384)) :named expr387))
(declare-const e388 (_ BitVec 32))
(assert (! (= e388 ((_ zero_extend 27) e382)) :named expr388))
(declare-const e389 (_ BitVec 32))
(assert (! (= e389 (bvlshr e358 e388)) :named expr389))
(declare-const e390 (_ BitVec 8))
(assert (! (= e390 #b00100000) :named expr390))
(declare-const e391 (_ BitVec 8))
(assert (! (= e391 ((_ zero_extend 3) e382)) :named expr391))
(declare-const e392 (_ BitVec 8))
(assert (! (= e392 (bvsub e390 e391)) :named expr392))
(declare-const e393 (_ BitVec 32))
(assert (! (= e393 ((_ zero_extend 24) e392)) :named expr393))
(declare-const e394 (_ BitVec 32))
(assert (! (= e394 (bvshl e358 e393)) :named expr394))
(declare-const e395 (_ BitVec 32))
(assert (! (= e395 (bvor e389 e394)) :named expr395))
(declare-const e396 Bool)
(assert (! (= e396 (= t4_380 e395)) :named expr396))
(declare-const e397 Bool)
(assert (! (= e397 (and e387 e396)) :named expr397))
(declare-const e398 Bool)
(assert (! (= e398 (ite t1_378 e386 e397)) :named expr398))
(declare-const e399 (_ BitVec 32))
(assert (! (= e399 (ite t1_378 t3_379 t4_380)) :named expr399))
(declare-const e400 Bool)
(assert (! (= e400 (= t5_381 e399)) :named expr400))
(declare-const e401 (_ BitVec 64))
(assert (! (= e401 ((_ zero_extend 32) t5_381)) :named expr401))
(declare-const e402 Bool)
(assert (! (= e402 (= b36_110 e401)) :named expr402))
(declare-const e403 Bool)
(assert (! (= e403 (and e400 e402)) :named expr403))
(declare-const e404 Bool)
(assert (! (= e404 (and e398 e403)) :named expr404))
(declare-const e405 Bool)
(assert (! (= e405 (and e385 e404)) :named expr405))
(declare-const e406 Bool)
(assert (! (= e406 (=> e346 e405)) :named expr406))
(declare-const t1_407 Bool)
(declare-const t3_408 (_ BitVec 64))
(declare-const t4_409 (_ BitVec 64))
(declare-const t5_410 (_ BitVec 64))
(declare-const e411 (_ BitVec 6))
(assert (! (= e411 ((_ extract 5 0) b19_96)) :named expr411))
(declare-const e412 (_ BitVec 6))
(assert (! (= e412 #b000000) :named expr412))
(declare-const e413 Bool)
(assert (! (= e413 (= e411 e412)) :named expr413))
(declare-const e414 Bool)
(assert (! (= e414 (= t1_407 e413)) :named expr414))
(declare-const e415 Bool)
(assert (! (= e415 (= t3_408 b17_87)) :named expr415))
(declare-const e416 Bool)
(assert (! (= e416 (not e413)) :named expr416))
(declare-const e417 (_ BitVec 64))
(assert (! (= e417 ((_ zero_extend 58) e411)) :named expr417))
(declare-const e418 (_ BitVec 64))
(assert (! (= e418 (bvlshr b17_87 e417)) :named expr418))
(declare-const e419 (_ BitVec 8))
(assert (! (= e419 #b01000000) :named expr419))
(declare-const e420 (_ BitVec 8))
(assert (! (= e420 ((_ zero_extend 2) e411)) :named expr420))
(declare-const e421 (_ BitVec 8))
(assert (! (= e421 (bvsub e419 e420)) :named expr421))
(declare-const e422 (_ BitVec 64))
(assert (! (= e422 ((_ zero_extend 56) e421)) :named expr422))
(declare-const e423 (_ BitVec 64))
(assert (! (= e423 (bvshl b17_87 e422)) :named expr423))
(declare-const e424 (_ BitVec 64))
(assert (! (= e424 (bvor e418 e423)) :named expr424))
(declare-const e425 Bool)
(assert (! (= e425 (= t4_409 e424)) :named expr425))
(declare-const e426 Bool)
(assert (! (= e426 (and e416 e425)) :named expr426))
(declare-const e427 Bool)
(assert (! (= e427 (ite t1_407 e415 e426)) :named expr427))
(declare-const e428 (_ BitVec 64))
(assert (! (= e428 (ite t1_407 t3_408 t4_409)) :named expr428))
(declare-const e429 Bool)
(assert (! (= e429 (= t5_410 e428)) :named expr429))
(declare-const e430 Bool)
(assert (! (= e430 (= b36_110 t5_410)) :named expr430))
(declare-const e431 Bool)
(assert (! (= e431 (and e429 e430)) :named expr431))
(declare-const e432 Bool)
(assert (! (= e432 (and e427 e431)) :named expr432))
(declare-const e433 Bool)
(assert (! (= e433 (and e414 e432)) :named expr433))
(declare-const e434 Bool)
(assert (! (= e434 (=> e345 e433)) :named expr434))
(declare-const b39_435 (_ BitVec 1))
(declare-const e436 Bool)
(assert (! (= e436 (= b39_435 e75)) :named expr436))
(declare-const e437 Bool)
(assert (! (= e437 (= b22_inner_105 b0_15)) :named expr437))
(declare-const e438 Bool)
(assert (! (= e438 (= clif_load_active_1 isa_load_active_8)) :named expr438))
(declare-const e439 Bool)
(assert (! (= e439 (= clif_load_size_bits_2 isa_load_size_bits_9)) :named expr439))
(declare-const e440 Bool)
(assert (! (= e440 (= clif_load_addr_3 isa_load_addr_10)) :named expr440))
(declare-const e441 Bool)
(assert (! (= e441 (and e438 e439)) :named expr441))
(declare-const e442 Bool)
(assert (! (= e442 (and e441 e440)) :named expr442))
(declare-const e443 Bool)
(assert (! (= e443 (=> clif_load_active_1 e442)) :named expr443))
(declare-const e444 Bool)
(assert (! (= e444 (= clif_store_active_4 isa_store_active_11)) :named expr444))
(declare-const e445 Bool)
(assert (! (= e445 (= clif_store_size_bits_5 isa_store_size_bits_12)) :named expr445))
(declare-const e446 Bool)
(assert (! (= e446 (= clif_store_addr_6 isa_store_addr_13)) :named expr446))
(declare-const e447 (_ BitVec 1))
(assert (! (= e447 ((_ extract 0 0) clif_store_value_7)) :named expr447))
(declare-const e448 (_ BitVec 1))
(assert (! (= e448 ((_ extract 0 0) isa_store_value_14)) :named expr448))
(declare-const e449 Bool)
(assert (! (= e449 (= e447 e448)) :named expr449))
(declare-const e450 Bool)
(assert (! (= e450 (and e446 e449)) :named expr450))
(declare-const e451 Bool)
(assert (! (= e451 (and e445 e450)) :named expr451))
(declare-const e452 Bool)
(assert (! (= e452 (=> clif_store_active_4 e451)) :named expr452))
(declare-const e453 Bool)
(assert (! (= e453 (= b22_some_104 e22)) :named expr453))
(declare-const e454 Bool)
(assert (! (= e454 (and e437 e438)) :named expr454))
(declare-const e455 Bool)
(assert (! (= e455 (and e454 e443)) :named expr455))
(declare-const e456 Bool)
(assert (! (= e456 (and e455 e444)) :named expr456))
(declare-const e457 Bool)
(assert (! (= e457 (and e456 e452)) :named expr457))
(declare-const e458 Bool)
(assert (! (= e458 (=> e22 e457)) :named expr458))
(declare-const e459 Bool)
(assert (! (= e459 (= b5_32 e67)) :named expr459))
(declare-const e460 Bool)
(assert (! (= e460 (not clif_load_active_1)) :named expr460))
(declare-const e461 Bool)
(assert (! (= e461 (not clif_store_active_4)) :named expr461))
(declare-const e462 Bool)
(assert (! (= e462 (= clif_store_size_bits_5 e138)) :named expr462))
(declare-const e463 Bool)
(assert (! (= e463 (and e461 e462)) :named expr463))
(declare-const e464 Bool)
(assert (! (= e464 (not isa_load_active_8)) :named expr464))
(declare-const e465 Bool)
(assert (! (= e465 (not isa_store_active_11)) :named expr465))
(declare-const e466 Bool)
(assert (! (= e466 (= isa_store_size_bits_12 e138)) :named expr466))
(declare-const e467 Bool)
(assert (! (= e467 (and e465 e466)) :named expr467))
(push)
(assert (and e23 e25 e31 e33 e35 e41 e42 e48 e50 e54 e55 e58 e64 e65 e68 e71 e83 e84 e86 e92 e95 e103 e112 e114 e115 e116 e119 e123 b22_some_104 e124 e130 e134 e223 e227 e237 e240 e248 e259 e240 e259 e237 e291 e240 e291 e237 e319 e240 e319 e237 e134 e240 e134 e237 e259 e240 e259 e237 e291 e240 e291 e237 e319 e240 e319 e237 e134 e237 e134 e240 e357 e363 e366 e370 e373 e377 e406 e434 e436 e453 b3_some_16 e459 b7_some_36 b10_some_51 b12_some_59 b15_some_72 e22 e460 e463 e464 e467))
(check-sat)
(pop)
(push)
(assert (not (=> (and e23 e25 e31 e33 e35 e41 e42 e48 e50 e54 e55 e58 e64 e65 e68 e71 e83 e84 e86 e92 e95 e103 e112 e114 e115 e116 e119 e123 b22_some_104 e124 e130 e134 e223 e227 e237 e240 e248 e259 e240 e259 e237 e291 e240 e291 e237 e319 e240 e319 e237 e134 e240 e134 e237 e259 e240 e259 e237 e291 e240 e291 e237 e319 e240 e319 e237 e134 e237 e134 e240 e357 e363 e366 e370 e373 e377 e406 e434 e436 e453 b3_some_16 e459 b7_some_36 b10_some_51 b12_some_59 b15_some_72 e22 e460 e463 e464 e467) (and e89 e233 e353 e458))))
(check-sat)
(pop)
